NAME: ACTUAL_TOURS/amz1371
TYPE: TOUR
COMMENT: RouteID_90bf9c7c-a949-4a66-bea2-840dc6a21c7a
DIMENSION: 169
TOUR_SECTION
8
110
13
134
168
158
73
140
69
104
7
144
79
68
49
145
3
14
166
81
60
29
85
78
141
118
65
46
164
71
96
44
126
74
95
52
28
127
151
143
32
167
103
55
27
101
161
77
157
4
75
107
19
138
18
5
15
63
94
115
117
106
91
149
135
41
89
72
142
139
20
90
152
40
42
87
150
121
119
153
66
43
83
92
48
36
128
34
112
169
58
33
45
125
22
100
116
124
26
56
37
162
86
84
23
54
113
123
30
137
132
59
163
114
122
165
76
64
159
31
35
12
111
2
11
129
50
147
6
53
24
62
130
98
133
97
16
80
102
154
25
88
9
38
108
146
61
17
70
1
57
109
136
156
160
148
67
93
39
99
51
105
21
10
47
82
131
155
120
-1
EOF
